SCIP version 5.0.0 [precision: 8 byte] [memory: block] [mode: optimized] [LP solver: NONE] [GitHash: 3bbd232]
Copyright (C) 2002-2017 Konrad-Zuse-Zentrum fuer Informationstechnik Berlin (ZIB)

External codes: 
  Readline EditLine w  GNU library for command line editing (gnu.org/s/readline)
  CppAD 20160000.1     Algorithmic Differentiation of C++ algorithms developed by B. Bell (www.coin-or.org/CppAD)
  ZLIB 1.2.5           General purpose compression library by J. Gailly and M. Adler (zlib.net)
  GMP 6.1.2            GNU Multiple Precision Arithmetic Library developed by T. Granlund (gmplib.org)

user parameter file <scip.set> not found - using default parameters

read problem <../../Split_data/output/biodeg/1/0_sample_biodeg.logreg>
============

File name	:	../../Split_data/output/biodeg/1/0_sample_biodeg.logreg
Problem name 	:	0_sample_biodeg
Number of data	:	844
Number of var	:	41
The given data has linear dependence
1 sets of column vector are linearly dependent:
{ 19}, 

[dim=1] time: 0.027828
[dim=2] time: 0.057154
[dim=3] time: 0.089705
[dim=4] time: 0.12029
[dim=5] time: 0.168896
[dim=6] time: 0.203671
[dim=7] time: 0.238296
[dim=8] time: 0.276803
[dim=9] time: 0.30383
[dim=10] time: 0.329387
[dim=11] time: 0.357368
[dim=12] time: 0.381578
[dim=13] time: 0.404063
[dim=14] time: 0.427394
[dim=15] time: 0.451968
[dim=16] time: 0.468647
[dim=17] time: 0.484585
[dim=18] time: 0.502648
[dim=19] time: 0.525848
[dim=20] time: 0.549457
[dim=21] time: 0.572478
[dim=22] time: 0.588711
[dim=23] time: 0.605543
[dim=24] time: 0.620602
[dim=25] time: 0.636313
[dim=26] Time of forward = 0.654417sec.
AIC: 528.31
k: 25

[dim=40] time: 0.155672
[dim=39] time: 0.206499
[dim=38] time: 0.24771
[dim=37] time: 0.283688
[dim=36] time: 0.325845
[dim=35] time: 0.36813
[dim=34] time: 0.459556
[dim=33] time: 0.500513
[dim=32] time: 0.541185
[dim=31] time: 0.579851
[dim=30] time: 0.618505
[dim=29] time: 0.66159
[dim=28] time: 0.697387
[dim=27] time: 0.725918
[dim=26] time: 0.753913
[dim=25] time: 0.78153
[dim=24] Time of backward = 0.804649sec.
AIC: 525.797
k: 25
